(set-logic QF_S)
(declare-fun var_0xINPUT_114521 () String)
(assert (and (= (len var_0xINPUT_114521) 0) (= (len var_0xINPUT_114521) 0) (not (= var_0xINPUT_114521 "Example:")) (not (= var_0xINPUT_114521 "o7E1eVAEe3"))))
(check-sat var_0xINPUT_114521)